solution status: optimal solution found
objective value:                                    0
shell_i_bank.beads_in_hole                          1 	(obj:0)
shell_j_bank.cells_in_hole                          1 	(obj:0)
shell_k_bank.cells_in_hole                          1 	(obj:0)
shell_i_bank.beads_out_hole                         1 	(obj:0)
shell_j_bank.beads_out_hole                         1 	(obj:0)
shell_i_bank.lysis_buffer_in_hole                    1 	(obj:0)
shell_j_bank.lysis_buffer_in_hole                    1 	(obj:0)
shell_i_bank.lysis_buffer_out_hole                    1 	(obj:0)
shell_k_bank.lysis_buffer_out_hole                    1 	(obj:0)
shell_i_bank.collect_hole                           1 	(obj:0)
shell_j_bank.collect_hole                           1 	(obj:0)
shell_k_bank.collect_hole                           1 	(obj:0)
shell_i_bank.waste_out_hole                         1 	(obj:0)
shell_j_bank.waste_out_hole                         1 	(obj:0)
shell_i_bank.push_line_hole                         1 	(obj:0)
shell_i_bank.cells_out_hole                         1 	(obj:0)
bank.beads_out_hole_x                               8 	(obj:0)
bank.beads_out_hole_y                               8 	(obj:0)
bank.collect_hole_x                                 8 	(obj:0)
bank.collect_hole_y                                 8 	(obj:0)
bank.collect_hole_z                                 8 	(obj:0)
bank.cells_in_hole_x                                2 	(obj:0)
bank.cells_in_hole_y                                8 	(obj:0)
bank.cells_in_hole_z                               -8 	(obj:0)
bank.waste_out_hole_x                               8 	(obj:0)
bank.waste_out_hole_y                               8 	(obj:0)
bank.waste_out_hole_z                               2 	(obj:0)
bank.lysis_buffer_in_hole_x                         8 	(obj:0)
bank.lysis_buffer_in_hole_y                         8 	(obj:0)
bank.lysis_buffer_in_hole_z                        -1 	(obj:0)
bank.push_line_hole_x                               8 	(obj:0)
bank.push_line_hole_y                               6 	(obj:0)
bank.push_line_hole_z                              -6 	(obj:0)
bank.beads_in_hole_x                                8 	(obj:0)
bank.beads_in_hole_y                                2 	(obj:0)
bank.cells_out_hole_x                               8 	(obj:0)
bank.cells_out_hole_y                               4 	(obj:0)
bank.cells_out_hole_z                              -2 	(obj:0)
bank.lysis_buffer_out_hole_x                        8 	(obj:0)
bank.lysis_buffer_out_hole_z                       -8 	(obj:0)
